g3 1 1 0	# problem lms1b
 2 0 1 0 0	# vars, constraints, objectives, ranges, eqns
 0 1	# nonlinear constraints, objectives
 0 0	# network constraints: nonlinear, linear
 0 2 0	# nonlinear vars in constraints, objectives, both
 0 1 0 1	# linear network variables; functions; arith, flags
 0 0 0 0 0	# discrete variables: binary, integer, nonlinear (b,c,o)
 0 2	# nonzeros in Jacobian, gradients
 0 0	# max name lengths: constraints, variables
 0 0 0 0 47	# common exprs: b,c,o,c1,o1
F0 0 -3 median
V2 2 1
0 -4.37
1 -1
n5.23
V3 2 1
0 -4.56
1 -1
n5.74
V4 2 1
0 -4.26
1 -1
n4.93
V5 2 1
0 -4.56
1 -1
n5.74
V6 2 1
0 -4.3
1 -1
n5.19
V7 2 1
0 -4.46
1 -1
n5.46
V8 2 1
0 -3.84
1 -1
n4.65
V9 2 1
0 -4.57
1 -1
n5.27
V10 2 1
0 -4.26
1 -1
n5.57
V11 2 1
0 -4.37
1 -1
n5.12
V12 2 1
0 -3.49
1 -1
n5.73
V13 2 1
0 -4.43
1 -1
n5.45
V14 2 1
0 -4.48
1 -1
n5.42
V15 2 1
0 -4.01
1 -1
n4.05
V16 2 1
0 -4.29
1 -1
n4.26
V17 2 1
0 -4.43
1 -1
n4.58
V18 2 1
0 -4.23
1 -1
n3.94
V19 2 1
0 -4.42
1 -1
n4.18
V20 2 1
0 -4.23
1 -1
n4.18
V21 2 1
0 -3.49
1 -1
n5.89
V22 2 1
0 -4.29
1 -1
n4.38
V23 2 1
0 -4.29
1 -1
n4.22
V24 2 1
0 -4.42
1 -1
n4.42
V25 2 1
0 -4.49
1 -1
n4.85
V26 2 1
0 -4.38
1 -1
n5.02
V27 2 1
0 -4.42
1 -1
n4.66
V28 2 1
0 -4.29
1 -1
n4.9
V29 2 1
0 -4.38
1 -1
n4.39
V30 2 1
0 -4.22
1 -1
n4.39
V31 2 1
0 -3.48
1 -1
n6.05
V32 2 1
0 -4.38
1 -1
n4.42
V33 2 1
0 -4.56
1 -1
n5.1
V34 2 1
0 -4.45
1 -1
n5.22
V35 2 1
0 -3.49
1 -1
n6.29
V36 2 1
0 -4.23
1 -1
n4.34
V37 2 1
0 -4.62
1 -1
n5.62
V38 2 1
0 -4.53
1 -1
n5.1
V39 2 1
0 -4.45
1 -1
n5.22
V40 2 1
0 -4.53
1 -1
n5.18
V41 2 1
0 -4.43
1 -1
n5.57
V42 2 1
0 -4.38
1 -1
n4.62
V43 2 1
0 -4.45
1 -1
n5.06
V44 2 1
0 -4.5
1 -1
n5.34
V45 2 1
0 -4.45
1 -1
n5.34
V46 2 1
0 -4.55
1 -1
n5.54
V47 2 1
0 -4.45
1 -1
n4.98
V48 2 1
0 -4.42
1 -1
n4.5
O0 0
f0 47
o5
v2
n2
o5
v3
n2
o5
v4
n2
o5
v5
n2
o5
v6
n2
o5
v7
n2
o5
v8
n2
o5
v9
n2
o5
v10
n2
o5
v11
n2
o5
v12
n2
o5
v13
n2
o5
v14
n2
o5
v15
n2
o5
v16
n2
o5
v17
n2
o5
v18
n2
o5
v19
n2
o5
v20
n2
o5
v21
n2
o5
v22
n2
o5
v23
n2
o5
v24
n2
o5
v25
n2
o5
v26
n2
o5
v27
n2
o5
v28
n2
o5
v29
n2
o5
v30
n2
o5
v31
n2
o5
v32
n2
o5
v33
n2
o5
v34
n2
o5
v35
n2
o5
v36
n2
o5
v37
n2
o5
v38
n2
o5
v39
n2
o5
v40
n2
o5
v41
n2
o5
v42
n2
o5
v43
n2
o5
v44
n2
o5
v45
n2
o5
v46
n2
o5
v47
n2
o5
v48
n2
b
0 -2 6
0 -20 20
k1
0
G0 2
0 0
1 0
